(declare-fun temp78001_1 () (_ BitVec 64))
(declare-fun temp78001_2 () (_ BitVec 64))
(declare-fun var77740 () (_ BitVec 64))
(declare-fun k!0 () Bool)
(declare-fun ARGNAME_filter_NAMEEND_DIM () (_ BitVec 64))
(declare-fun ARGNAME_data_format_NAMEEND_STRFMT () (_ BitVec 64))
(declare-fun temp78001_3 () (_ BitVec 64))
(declare-fun ARGNAME_out_backprop_NAMEEND_DIM () (_ BitVec 64))
(declare-fun var77770 () (_ BitVec 64))
(declare-fun temp78001_4 () (_ BitVec 64))
(declare-fun temp78001_5 () (_ BitVec 64))
(declare-fun ARGNAME_filter_NAMEEND_DIMSIZE
             ()
             (Array (_ BitVec 64) (_ BitVec 64)))
(declare-fun temp78001_6 () (_ BitVec 64))
(declare-fun temp78001_7 () (_ BitVec 64))
(declare-fun temp78001_8 () (_ BitVec 64))
(declare-fun temp78001_9 () (_ BitVec 64))
(declare-fun temp78001_10 () (_ BitVec 64))
(declare-fun temp78001_11 () (_ BitVec 64))
(declare-fun temp78001_12 () (_ BitVec 64))
(declare-fun temp78001_13 () (_ BitVec 64))
(declare-fun temp78001_14 () (_ BitVec 64))
(declare-fun temp78001_15 () (_ BitVec 64))
(declare-fun temp78001_16 () (_ BitVec 64))
(declare-fun temp78001_17 () (_ BitVec 64))
(declare-fun temp78001_18 () (_ BitVec 64))
(declare-fun var77799 () (_ BitVec 64))
(declare-fun temp78001_19 () (_ BitVec 64))
(declare-fun ARGNAME_out_backprop_NAMEEND_DIMSIZE
             ()
             (Array (_ BitVec 64) (_ BitVec 64)))
(declare-fun temp78001_20 () (_ BitVec 64))
(declare-fun temp78001_21 () (_ BitVec 64))
(declare-fun temp78001_22 () (_ BitVec 64))
(declare-fun temp78001_23 () (_ BitVec 64))
(declare-fun temp78001_24 () (_ BitVec 64))
(declare-fun temp78001_25 () (_ BitVec 64))
(declare-fun temp78001_26 () (_ BitVec 64))
(declare-fun temp78001_27 () (_ BitVec 64))
(declare-fun temp78001_28 () (_ BitVec 64))
(declare-fun temp78001_29 () (_ BitVec 64))
(declare-fun temp78001_30 () (_ BitVec 64))
(declare-fun temp78001_31 () (_ BitVec 64))
(declare-fun temp78001_32 () (_ BitVec 64))
(declare-fun var77832 () (_ BitVec 64))
(declare-fun temp78001_33 () (_ BitVec 64))
(declare-fun temp78001_34 () (_ BitVec 64))
(declare-fun var77833 () (_ BitVec 64))
(declare-fun var77834 () (_ BitVec 64))
(declare-fun temp78001_35 () (_ BitVec 64))
(declare-fun temp78001_36 () (_ BitVec 64))
(declare-fun var275510 () (_ BitVec 64))
(declare-fun temp78001_37 () (_ BitVec 64))
(declare-fun var275528 () (_ BitVec 64))
(declare-fun temp78001_38 () (_ BitVec 64))
(declare-fun temp78001_40 () (_ BitVec 64))
(declare-fun temp78001_39 () (_ BitVec 64))
(declare-fun temp78001_41 () (_ BitVec 64))
(declare-fun var472118 () (_ BitVec 64))
(declare-fun temp78001_42 () (_ BitVec 64))
(declare-fun var472136 () (_ BitVec 64))
(declare-fun temp78001_43 () (_ BitVec 64))
(declare-fun temp78001_44 () (_ BitVec 64))
(declare-fun var603190 () (_ BitVec 64))
(declare-fun temp78001_45 () (_ BitVec 64))
(declare-fun var603208 () (_ BitVec 64))
(declare-fun temp78001_46 () (_ BitVec 64))
(declare-fun temp78001_48 () (_ BitVec 64))
(declare-fun temp78001_47 () (_ BitVec 64))
(declare-fun temp78001_50 () (_ BitVec 64))
(declare-fun temp78001_49 () (_ BitVec 64))
(declare-fun temp78001_52 () (_ BitVec 64))
(declare-fun temp78001_51 () (_ BitVec 64))
(declare-fun temp78001_53 () (_ BitVec 64))
(declare-fun var795723 () (_ BitVec 64))
(declare-fun var795702 () (_ BitVec 64))
(declare-fun var730134 () (_ BitVec 64))
(declare-fun temp78001_54 () (_ BitVec 64))
(declare-fun temp78001_55 () (_ BitVec 64))
(declare-fun var926795 () (_ BitVec 64))
(declare-fun var926774 () (_ BitVec 64))
(declare-fun var730147 () (_ BitVec 64))
(declare-fun temp78001_56 () (_ BitVec 64))
(declare-fun temp78001_57 () (_ BitVec 64))
(declare-fun var1123378 () (_ BitVec 64))
(declare-fun temp78001_58 () (_ BitVec 64))
(declare-fun var1188914 () (_ BitVec 64))
(declare-fun temp78001_59 () (_ BitVec 64))
(declare-fun var1254450 () (_ BitVec 64))
(declare-fun temp78001_60 () (_ BitVec 64))
(declare-fun var78184 () (_ BitVec 64))
(assert (or (= ARGNAME_data_format_NAMEEND_STRFMT #x0000000000000000)
    (= ARGNAME_data_format_NAMEEND_STRFMT #x0000000000000001)
    (= ARGNAME_data_format_NAMEEND_STRFMT #x0000000000000002)
    (= ARGNAME_data_format_NAMEEND_STRFMT #x0000000000000003)
    (= ARGNAME_data_format_NAMEEND_STRFMT #x0000000000000004)
    (= ARGNAME_data_format_NAMEEND_STRFMT #x0000000000000005)))
(assert (= temp78001_1 #x0000000000000005))
(assert (= var77740
   (ite (= ARGNAME_filter_NAMEEND_DIM temp78001_1)
        #x0000000000000001
        #x0000000000000000)))
(assert (= temp78001_2 #x0000000000000001))
(assert (= var77740 temp78001_2))
(assert (= temp78001_3 #x0000000000000005))
(assert (= var77770
   (ite (= ARGNAME_out_backprop_NAMEEND_DIM temp78001_3)
        #x0000000000000001
        #x0000000000000000)))
(assert (= temp78001_4 #x0000000000000001))
(assert (= var77770 temp78001_4))
(assert (= temp78001_5 #x0000000000000000))
(assert (= temp78001_6 (select ARGNAME_filter_NAMEEND_DIMSIZE temp78001_5)))
(assert (= temp78001_7 #x0000000000000001))
(assert (= temp78001_8 (select ARGNAME_filter_NAMEEND_DIMSIZE temp78001_7)))
(assert (= temp78001_9 #x0000000000000002))
(assert (= temp78001_10 (select ARGNAME_filter_NAMEEND_DIMSIZE temp78001_9)))
(assert (= temp78001_11 #x0000000000000003))
(assert (= temp78001_12 (select ARGNAME_filter_NAMEEND_DIMSIZE temp78001_11)))
(assert (= temp78001_13 #x0000000000000004))
(assert (= temp78001_14 (select ARGNAME_filter_NAMEEND_DIMSIZE temp78001_13)))
(assert (= temp78001_15 #x0000000000000005))
(assert (= temp78001_16 (select ARGNAME_filter_NAMEEND_DIMSIZE temp78001_15)))
(assert (= temp78001_17 #x0000000000000003))
(assert (= temp78001_18 (select ARGNAME_filter_NAMEEND_DIMSIZE temp78001_17)))
(assert (= var77799 temp78001_18))
(assert (= temp78001_19 #x0000000000000000))
(assert (= temp78001_20 (select ARGNAME_out_backprop_NAMEEND_DIMSIZE temp78001_19)))
(assert (= temp78001_21 #x0000000000000001))
(assert (= temp78001_22 (select ARGNAME_out_backprop_NAMEEND_DIMSIZE temp78001_21)))
(assert (= temp78001_23 #x0000000000000002))
(assert (= temp78001_24 (select ARGNAME_out_backprop_NAMEEND_DIMSIZE temp78001_23)))
(assert (= temp78001_25 #x0000000000000003))
(assert (= temp78001_26 (select ARGNAME_out_backprop_NAMEEND_DIMSIZE temp78001_25)))
(assert (= temp78001_27 #x0000000000000004))
(assert (= temp78001_28 (select ARGNAME_out_backprop_NAMEEND_DIMSIZE temp78001_27)))
(assert (= temp78001_29 #x0000000000000005))
(assert (= temp78001_30 (select ARGNAME_out_backprop_NAMEEND_DIMSIZE temp78001_29)))
(assert (= temp78001_31 #x0000000000000004))
(assert (= temp78001_32 (select ARGNAME_out_backprop_NAMEEND_DIMSIZE temp78001_31)))
(assert (= var77832 temp78001_32))
(assert (= temp78001_33 #x0000000000000004))
(assert (= temp78001_34 (select ARGNAME_filter_NAMEEND_DIMSIZE temp78001_33)))
(assert (= var77833 temp78001_34))
(assert (= var77834 (ite (= var77832 var77833) #x0000000000000001 #x0000000000000000)))
(assert (= temp78001_35 #x0000000000000001))
(assert (= var77834 temp78001_35))
(assert (= temp78001_36 #x0000000000000001))
(assert (= var275510 temp78001_36))
(assert (= temp78001_37 #x0000000000000001))
(assert (= var275528
   (ite (bvslt var275510 temp78001_37) #x0000000000000001 #x0000000000000000)))
(assert (= temp78001_38 #x0000000000000000))
(assert (= var275528 temp78001_38))
(assert (= temp78001_40 #x0000000000000000))
(assert (= temp78001_39 temp78001_40))
(assert (= temp78001_41 #x0000000000000001))
(assert (= var472118 temp78001_41))
(assert (= temp78001_42 #x0000000000000001))
(assert (= var472136
   (ite (bvslt var472118 temp78001_42) #x0000000000000001 #x0000000000000000)))
(assert (= temp78001_43 #x0000000000000000))
(assert (= var472136 temp78001_43))
(assert (= temp78001_44 #x0000000000000001))
(assert (= var603190 temp78001_44))
(assert (= temp78001_45 #x0000000000000001))
(assert (= var603208
   (ite (bvslt var603190 temp78001_45) #x0000000000000001 #x0000000000000000)))
(assert (= temp78001_46 #x0000000000000000))
(assert (= var603208 temp78001_46))
(assert (= temp78001_48 #x00000000000000ff))
(assert (= temp78001_47 temp78001_48))
(assert (= temp78001_50 #x00000000000000ff))
(assert (= temp78001_49 temp78001_50))
(assert (= temp78001_52 #x00000000000000ff))
(assert (= temp78001_51 temp78001_52))
(assert (= temp78001_53 #x0000000000000000))
(assert (= var795723 temp78001_53))
(assert (= var795702 var795723))
(assert (= var730134 var795702))
(assert (= temp78001_54 #x0000000000000000))
(assert (= var730134 temp78001_54))
(assert (= temp78001_55 #x0000000000000000))
(assert (= var926795 temp78001_55))
(assert (= var926774 var926795))
(assert (= var730147 var926774))
(assert (= temp78001_56 #x0000000000000000))
(assert (= var730147 temp78001_56))
(assert (= temp78001_57 #x0000000000008000))
(assert (= var1123378 temp78001_57))
(assert (= temp78001_58 #x0000000000040000))
(assert (= var1188914 temp78001_58))
(assert (= temp78001_59 #x0000000000200000))
(assert (= var1254450 temp78001_59))
(assert (= temp78001_60 #x0000000000000001))
(assert (= var78184 temp78001_60))
(model-add temp78001_1 () (_ BitVec 64) #x0000000000000005)
(model-add temp78001_2 () (_ BitVec 64) #x0000000000000001)
(model-add var77740 () (_ BitVec 64) #x0000000000000001)
(model-del k!0)
(model-add ARGNAME_filter_NAMEEND_DIM
           ()
           (_ BitVec 64)
           (ite k!0 #x0000000000000005 (bvnot #x0000000000000005)))


